ilp_joint_2/output/photosynthesis_ilp.lp
Maximize
  0.00520338626476297 Z_82_1_0 + 0.4792931442273474 Z_82_1_1
   + 0.00644450621756087 Z_82_1_2 + 0.0287941828644597 Z_82_1_3
   + 0.0053149660705229 Z_125_1_0 + 0.0179649583730204 Z_125_1_1
   + 0.1294383261637531 Z_125_1_2 + 0.4412544563906702 Z_125_1_3
   + 6.9484867186159205e-04 Z_124_1_0 + 0.0074944046106567 Z_124_1_1
   + 0.2632381819241058 Z_124_1_2 + 0.3654271781948801 Z_124_1_3 + [
   0.493064772537403 Z_82_1_0 * Z_125_1_0
   + 0.1009069909755948 Z_82_1_0 * Z_124_1_0
   + 0.493064772537403 Z_82_1_1 * Z_125_1_1
   + 0.1009069909755948 Z_82_1_1 * Z_124_1_1
   + 0.493064772537403 Z_82_1_2 * Z_125_1_2
   + 0.1009069909755948 Z_82_1_2 * Z_124_1_2
   + 0.493064772537403 Z_82_1_3 * Z_125_1_3
   + 0.1009069909755948 Z_82_1_3 * Z_124_1_3
   + 0.8074578961915422 Z_125_1_0 * Z_124_1_0
   + 0.8074578961915422 Z_125_1_1 * Z_124_1_1
   + 0.8074578961915422 Z_125_1_2 * Z_124_1_2
   + 0.8074578961915422 Z_125_1_3 * Z_124_1_3 ] / 2 
Subject To
 constraint1_821: Z_82_1_0 + Z_82_1_1 + Z_82_1_2 + Z_82_1_3 <= 1
 constraint1_1251: Z_125_1_0 + Z_125_1_1 + Z_125_1_2 + Z_125_1_3 <= 1
 constraint1_1241: Z_124_1_0 + Z_124_1_1 + Z_124_1_2 + Z_124_1_3 <= 1
 constraint2_170: <= 1
 constraint2_171: <= 1
 constraint2_172: <= 1
 constraint2_173: <= 1
 constraint2_820: Z_82_1_0 <= 1
 constraint2_821: Z_82_1_1 <= 1
 constraint2_822: Z_82_1_2 <= 1
 constraint2_823: Z_82_1_3 <= 1
 constraint2_230: <= 1
 constraint2_231: <= 1
 constraint2_232: <= 1
 constraint2_233: <= 1
 constraint2_1050: <= 1
 constraint2_1051: <= 1
 constraint2_1052: <= 1
 constraint2_1053: <= 1
 constraint2_1250: Z_125_1_0 <= 1
 constraint2_1251: Z_125_1_1 <= 1
 constraint2_1252: Z_125_1_2 <= 1
 constraint2_1253: Z_125_1_3 <= 1
 constraint2_1320: <= 1
 constraint2_1321: <= 1
 constraint2_1322: <= 1
 constraint2_1323: <= 1
 constraint2_1240: Z_124_1_0 <= 1
 constraint2_1241: Z_124_1_1 <= 1
 constraint2_1242: Z_124_1_2 <= 1
 constraint2_1243: Z_124_1_3 <= 1
Bounds
Binaries
 Z_82_1_0 Z_82_1_1 Z_82_1_2 Z_82_1_3 Z_125_1_0 Z_125_1_1 Z_125_1_2
 Z_125_1_3 Z_124_1_0 Z_124_1_1 Z_124_1_2 Z_124_1_3
End
