ilp_joint_2/output/photosynthesis_ilp.sol
# Solution for model photosynthesis_srl_ilp
# Objective value = 1.6897037269086688e+00
Z_82_1_0 0
Z_82_1_1 1
Z_82_1_2 0
Z_82_1_3 0
Z_125_1_0 0
Z_125_1_1 0
Z_125_1_2 0
Z_125_1_3 1
Z_124_1_0 0
Z_124_1_1 0
Z_124_1_2 0
Z_124_1_3 1
